* #variable= 100 #constraint= 400
+1 ~x2_A +1 ~x1_B >= 1;
+1 ~x2_B +1 ~x1_C >= 1;
+1 ~x2_B +1 ~x1_A >= 1;
+1 ~x2_C +1 ~x1_D >= 1;
+1 ~x2_C +1 ~x1_B >= 1;
+1 ~x2_D +1 ~x1_E >= 1;
+1 ~x2_D +1 ~x1_C >= 1;
+1 ~x2_E +1 ~x1_F >= 1;
+1 ~x2_E +1 ~x1_D >= 1;
+1 ~x2_F +1 ~x1_G >= 1;
+1 ~x2_F +1 ~x1_E >= 1;
+1 ~x2_G +1 ~x1_H >= 1;
+1 ~x2_G +1 ~x1_F >= 1;
+1 ~x2_H +1 ~x1_I >= 1;
+1 ~x2_H +1 ~x1_G >= 1;
+1 ~x2_I +1 ~x1_J >= 1;
+1 ~x2_I +1 ~x1_H >= 1;
+1 ~x2_J +1 ~x1_I >= 1;
+1 ~x3_A +1 ~x2_B >= 1;
+1 ~x3_B +1 ~x2_C >= 1;
+1 ~x3_B +1 ~x2_A >= 1;
+1 ~x3_C +1 ~x2_D >= 1;
+1 ~x3_C +1 ~x2_B >= 1;
+1 ~x3_D +1 ~x2_E >= 1;
+1 ~x3_D +1 ~x2_C >= 1;
+1 ~x3_E +1 ~x2_F >= 1;
+1 ~x3_E +1 ~x2_D >= 1;
+1 ~x3_F +1 ~x2_G >= 1;
+1 ~x3_F +1 ~x2_E >= 1;
+1 ~x3_G +1 ~x2_H >= 1;
+1 ~x3_G +1 ~x2_F >= 1;
+1 ~x3_H +1 ~x2_I >= 1;
+1 ~x3_H +1 ~x2_G >= 1;
+1 ~x3_I +1 ~x2_J >= 1;
+1 ~x3_I +1 ~x2_H >= 1;
+1 ~x3_J +1 ~x2_I >= 1;
+1 ~x4_A +1 ~x0_B >= 1;
+1 ~x4_B +1 ~x0_C >= 1;
+1 ~x4_B +1 ~x0_A >= 1;
+1 ~x4_C +1 ~x0_D >= 1;
+1 ~x4_C +1 ~x0_B >= 1;
+1 ~x4_D +1 ~x0_E >= 1;
+1 ~x4_D +1 ~x0_C >= 1;
+1 ~x4_E +1 ~x0_F >= 1;
+1 ~x4_E +1 ~x0_D >= 1;
+1 ~x4_F +1 ~x0_G >= 1;
+1 ~x4_F +1 ~x0_E >= 1;
+1 ~x4_G +1 ~x0_H >= 1;
+1 ~x4_G +1 ~x0_F >= 1;
+1 ~x4_H +1 ~x0_I >= 1;
+1 ~x4_H +1 ~x0_G >= 1;
+1 ~x4_I +1 ~x0_J >= 1;
+1 ~x4_I +1 ~x0_H >= 1;
+1 ~x4_J +1 ~x0_I >= 1;
+1 ~x4_A +1 ~x1_B >= 1;
+1 ~x4_B +1 ~x1_C >= 1;
+1 ~x4_B +1 ~x1_A >= 1;
+1 ~x4_C +1 ~x1_D >= 1;
+1 ~x4_C +1 ~x1_B >= 1;
+1 ~x4_D +1 ~x1_E >= 1;
+1 ~x4_D +1 ~x1_C >= 1;
+1 ~x4_E +1 ~x1_F >= 1;
+1 ~x4_E +1 ~x1_D >= 1;
+1 ~x4_F +1 ~x1_G >= 1;
+1 ~x4_F +1 ~x1_E >= 1;
+1 ~x4_G +1 ~x1_H >= 1;
+1 ~x4_G +1 ~x1_F >= 1;
+1 ~x4_H +1 ~x1_I >= 1;
+1 ~x4_H +1 ~x1_G >= 1;
+1 ~x4_I +1 ~x1_J >= 1;
+1 ~x4_I +1 ~x1_H >= 1;
+1 ~x4_J +1 ~x1_I >= 1;
+1 ~x4_A +1 ~x3_B >= 1;
+1 ~x4_B +1 ~x3_C >= 1;
+1 ~x4_B +1 ~x3_A >= 1;
+1 ~x4_C +1 ~x3_D >= 1;
+1 ~x4_C +1 ~x3_B >= 1;
+1 ~x4_D +1 ~x3_E >= 1;
+1 ~x4_D +1 ~x3_C >= 1;
+1 ~x4_E +1 ~x3_F >= 1;
+1 ~x4_E +1 ~x3_D >= 1;
+1 ~x4_F +1 ~x3_G >= 1;
+1 ~x4_F +1 ~x3_E >= 1;
+1 ~x4_G +1 ~x3_H >= 1;
+1 ~x4_G +1 ~x3_F >= 1;
+1 ~x4_H +1 ~x3_I >= 1;
+1 ~x4_H +1 ~x3_G >= 1;
+1 ~x4_I +1 ~x3_J >= 1;
+1 ~x4_I +1 ~x3_H >= 1;
+1 ~x4_J +1 ~x3_I >= 1;
+1 ~x5_A +1 ~x0_B >= 1;
+1 ~x5_B +1 ~x0_C >= 1;
+1 ~x5_B +1 ~x0_A >= 1;
+1 ~x5_C +1 ~x0_D >= 1;
+1 ~x5_C +1 ~x0_B >= 1;
+1 ~x5_D +1 ~x0_E >= 1;
+1 ~x5_D +1 ~x0_C >= 1;
+1 ~x5_E +1 ~x0_F >= 1;
+1 ~x5_E +1 ~x0_D >= 1;
+1 ~x5_F +1 ~x0_G >= 1;
+1 ~x5_F +1 ~x0_E >= 1;
+1 ~x5_G +1 ~x0_H >= 1;
+1 ~x5_G +1 ~x0_F >= 1;
+1 ~x5_H +1 ~x0_I >= 1;
+1 ~x5_H +1 ~x0_G >= 1;
+1 ~x5_I +1 ~x0_J >= 1;
+1 ~x5_I +1 ~x0_H >= 1;
+1 ~x5_J +1 ~x0_I >= 1;
+1 ~x5_A +1 ~x1_B >= 1;
+1 ~x5_B +1 ~x1_C >= 1;
+1 ~x5_B +1 ~x1_A >= 1;
+1 ~x5_C +1 ~x1_D >= 1;
+1 ~x5_C +1 ~x1_B >= 1;
+1 ~x5_D +1 ~x1_E >= 1;
+1 ~x5_D +1 ~x1_C >= 1;
+1 ~x5_E +1 ~x1_F >= 1;
+1 ~x5_E +1 ~x1_D >= 1;
+1 ~x5_F +1 ~x1_G >= 1;
+1 ~x5_F +1 ~x1_E >= 1;
+1 ~x5_G +1 ~x1_H >= 1;
+1 ~x5_G +1 ~x1_F >= 1;
+1 ~x5_H +1 ~x1_I >= 1;
+1 ~x5_H +1 ~x1_G >= 1;
+1 ~x5_I +1 ~x1_J >= 1;
+1 ~x5_I +1 ~x1_H >= 1;
+1 ~x5_J +1 ~x1_I >= 1;
+1 ~x5_A +1 ~x2_B >= 1;
+1 ~x5_B +1 ~x2_C >= 1;
+1 ~x5_B +1 ~x2_A >= 1;
+1 ~x5_C +1 ~x2_D >= 1;
+1 ~x5_C +1 ~x2_B >= 1;
+1 ~x5_D +1 ~x2_E >= 1;
+1 ~x5_D +1 ~x2_C >= 1;
+1 ~x5_E +1 ~x2_F >= 1;
+1 ~x5_E +1 ~x2_D >= 1;
+1 ~x5_F +1 ~x2_G >= 1;
+1 ~x5_F +1 ~x2_E >= 1;
+1 ~x5_G +1 ~x2_H >= 1;
+1 ~x5_G +1 ~x2_F >= 1;
+1 ~x5_H +1 ~x2_I >= 1;
+1 ~x5_H +1 ~x2_G >= 1;
+1 ~x5_I +1 ~x2_J >= 1;
+1 ~x5_I +1 ~x2_H >= 1;
+1 ~x5_J +1 ~x2_I >= 1;
+1 ~x5_A +1 ~x3_B >= 1;
+1 ~x5_B +1 ~x3_C >= 1;
+1 ~x5_B +1 ~x3_A >= 1;
+1 ~x5_C +1 ~x3_D >= 1;
+1 ~x5_C +1 ~x3_B >= 1;
+1 ~x5_D +1 ~x3_E >= 1;
+1 ~x5_D +1 ~x3_C >= 1;
+1 ~x5_E +1 ~x3_F >= 1;
+1 ~x5_E +1 ~x3_D >= 1;
+1 ~x5_F +1 ~x3_G >= 1;
+1 ~x5_F +1 ~x3_E >= 1;
+1 ~x5_G +1 ~x3_H >= 1;
+1 ~x5_G +1 ~x3_F >= 1;
+1 ~x5_H +1 ~x3_I >= 1;
+1 ~x5_H +1 ~x3_G >= 1;
+1 ~x5_I +1 ~x3_J >= 1;
+1 ~x5_I +1 ~x3_H >= 1;
+1 ~x5_J +1 ~x3_I >= 1;
+1 ~x6_A +1 ~x0_B >= 1;
+1 ~x6_B +1 ~x0_C >= 1;
+1 ~x6_B +1 ~x0_A >= 1;
+1 ~x6_C +1 ~x0_D >= 1;
+1 ~x6_C +1 ~x0_B >= 1;
+1 ~x6_D +1 ~x0_E >= 1;
+1 ~x6_D +1 ~x0_C >= 1;
+1 ~x6_E +1 ~x0_F >= 1;
+1 ~x6_E +1 ~x0_D >= 1;
+1 ~x6_F +1 ~x0_G >= 1;
+1 ~x6_F +1 ~x0_E >= 1;
+1 ~x6_G +1 ~x0_H >= 1;
+1 ~x6_G +1 ~x0_F >= 1;
+1 ~x6_H +1 ~x0_I >= 1;
+1 ~x6_H +1 ~x0_G >= 1;
+1 ~x6_I +1 ~x0_J >= 1;
+1 ~x6_I +1 ~x0_H >= 1;
+1 ~x6_J +1 ~x0_I >= 1;
+1 ~x6_A +1 ~x2_B >= 1;
+1 ~x6_B +1 ~x2_C >= 1;
+1 ~x6_B +1 ~x2_A >= 1;
+1 ~x6_C +1 ~x2_D >= 1;
+1 ~x6_C +1 ~x2_B >= 1;
+1 ~x6_D +1 ~x2_E >= 1;
+1 ~x6_D +1 ~x2_C >= 1;
+1 ~x6_E +1 ~x2_F >= 1;
+1 ~x6_E +1 ~x2_D >= 1;
+1 ~x6_F +1 ~x2_G >= 1;
+1 ~x6_F +1 ~x2_E >= 1;
+1 ~x6_G +1 ~x2_H >= 1;
+1 ~x6_G +1 ~x2_F >= 1;
+1 ~x6_H +1 ~x2_I >= 1;
+1 ~x6_H +1 ~x2_G >= 1;
+1 ~x6_I +1 ~x2_J >= 1;
+1 ~x6_I +1 ~x2_H >= 1;
+1 ~x6_J +1 ~x2_I >= 1;
+1 ~x7_A +1 ~x3_B >= 1;
+1 ~x7_B +1 ~x3_C >= 1;
+1 ~x7_B +1 ~x3_A >= 1;
+1 ~x7_C +1 ~x3_D >= 1;
+1 ~x7_C +1 ~x3_B >= 1;
+1 ~x7_D +1 ~x3_E >= 1;
+1 ~x7_D +1 ~x3_C >= 1;
+1 ~x7_E +1 ~x3_F >= 1;
+1 ~x7_E +1 ~x3_D >= 1;
+1 ~x7_F +1 ~x3_G >= 1;
+1 ~x7_F +1 ~x3_E >= 1;
+1 ~x7_G +1 ~x3_H >= 1;
+1 ~x7_G +1 ~x3_F >= 1;
+1 ~x7_H +1 ~x3_I >= 1;
+1 ~x7_H +1 ~x3_G >= 1;
+1 ~x7_I +1 ~x3_J >= 1;
+1 ~x7_I +1 ~x3_H >= 1;
+1 ~x7_J +1 ~x3_I >= 1;
+1 ~x7_A +1 ~x5_B >= 1;
+1 ~x7_B +1 ~x5_C >= 1;
+1 ~x7_B +1 ~x5_A >= 1;
+1 ~x7_C +1 ~x5_D >= 1;
+1 ~x7_C +1 ~x5_B >= 1;
+1 ~x7_D +1 ~x5_E >= 1;
+1 ~x7_D +1 ~x5_C >= 1;
+1 ~x7_E +1 ~x5_F >= 1;
+1 ~x7_E +1 ~x5_D >= 1;
+1 ~x7_F +1 ~x5_G >= 1;
+1 ~x7_F +1 ~x5_E >= 1;
+1 ~x7_G +1 ~x5_H >= 1;
+1 ~x7_G +1 ~x5_F >= 1;
+1 ~x7_H +1 ~x5_I >= 1;
+1 ~x7_H +1 ~x5_G >= 1;
+1 ~x7_I +1 ~x5_J >= 1;
+1 ~x7_I +1 ~x5_H >= 1;
+1 ~x7_J +1 ~x5_I >= 1;
+1 ~x8_A +1 ~x2_B >= 1;
+1 ~x8_B +1 ~x2_C >= 1;
+1 ~x8_B +1 ~x2_A >= 1;
+1 ~x8_C +1 ~x2_D >= 1;
+1 ~x8_C +1 ~x2_B >= 1;
+1 ~x8_D +1 ~x2_E >= 1;
+1 ~x8_D +1 ~x2_C >= 1;
+1 ~x8_E +1 ~x2_F >= 1;
+1 ~x8_E +1 ~x2_D >= 1;
+1 ~x8_F +1 ~x2_G >= 1;
+1 ~x8_F +1 ~x2_E >= 1;
+1 ~x8_G +1 ~x2_H >= 1;
+1 ~x8_G +1 ~x2_F >= 1;
+1 ~x8_H +1 ~x2_I >= 1;
+1 ~x8_H +1 ~x2_G >= 1;
+1 ~x8_I +1 ~x2_J >= 1;
+1 ~x8_I +1 ~x2_H >= 1;
+1 ~x8_J +1 ~x2_I >= 1;
+1 ~x8_A +1 ~x3_B >= 1;
+1 ~x8_B +1 ~x3_C >= 1;
+1 ~x8_B +1 ~x3_A >= 1;
+1 ~x8_C +1 ~x3_D >= 1;
+1 ~x8_C +1 ~x3_B >= 1;
+1 ~x8_D +1 ~x3_E >= 1;
+1 ~x8_D +1 ~x3_C >= 1;
+1 ~x8_E +1 ~x3_F >= 1;
+1 ~x8_E +1 ~x3_D >= 1;
+1 ~x8_F +1 ~x3_G >= 1;
+1 ~x8_F +1 ~x3_E >= 1;
+1 ~x8_G +1 ~x3_H >= 1;
+1 ~x8_G +1 ~x3_F >= 1;
+1 ~x8_H +1 ~x3_I >= 1;
+1 ~x8_H +1 ~x3_G >= 1;
+1 ~x8_I +1 ~x3_J >= 1;
+1 ~x8_I +1 ~x3_H >= 1;
+1 ~x8_J +1 ~x3_I >= 1;
+1 ~x8_A +1 ~x4_B >= 1;
+1 ~x8_B +1 ~x4_C >= 1;
+1 ~x8_B +1 ~x4_A >= 1;
+1 ~x8_C +1 ~x4_D >= 1;
+1 ~x8_C +1 ~x4_B >= 1;
+1 ~x8_D +1 ~x4_E >= 1;
+1 ~x8_D +1 ~x4_C >= 1;
+1 ~x8_E +1 ~x4_F >= 1;
+1 ~x8_E +1 ~x4_D >= 1;
+1 ~x8_F +1 ~x4_G >= 1;
+1 ~x8_F +1 ~x4_E >= 1;
+1 ~x8_G +1 ~x4_H >= 1;
+1 ~x8_G +1 ~x4_F >= 1;
+1 ~x8_H +1 ~x4_I >= 1;
+1 ~x8_H +1 ~x4_G >= 1;
+1 ~x8_I +1 ~x4_J >= 1;
+1 ~x8_I +1 ~x4_H >= 1;
+1 ~x8_J +1 ~x4_I >= 1;
+1 ~x8_A +1 ~x5_B >= 1;
+1 ~x8_B +1 ~x5_C >= 1;
+1 ~x8_B +1 ~x5_A >= 1;
+1 ~x8_C +1 ~x5_D >= 1;
+1 ~x8_C +1 ~x5_B >= 1;
+1 ~x8_D +1 ~x5_E >= 1;
+1 ~x8_D +1 ~x5_C >= 1;
+1 ~x8_E +1 ~x5_F >= 1;
+1 ~x8_E +1 ~x5_D >= 1;
+1 ~x8_F +1 ~x5_G >= 1;
+1 ~x8_F +1 ~x5_E >= 1;
+1 ~x8_G +1 ~x5_H >= 1;
+1 ~x8_G +1 ~x5_F >= 1;
+1 ~x8_H +1 ~x5_I >= 1;
+1 ~x8_H +1 ~x5_G >= 1;
+1 ~x8_I +1 ~x5_J >= 1;
+1 ~x8_I +1 ~x5_H >= 1;
+1 ~x8_J +1 ~x5_I >= 1;
+1 ~x9_A +1 ~x1_B >= 1;
+1 ~x9_B +1 ~x1_C >= 1;
+1 ~x9_B +1 ~x1_A >= 1;
+1 ~x9_C +1 ~x1_D >= 1;
+1 ~x9_C +1 ~x1_B >= 1;
+1 ~x9_D +1 ~x1_E >= 1;
+1 ~x9_D +1 ~x1_C >= 1;
+1 ~x9_E +1 ~x1_F >= 1;
+1 ~x9_E +1 ~x1_D >= 1;
+1 ~x9_F +1 ~x1_G >= 1;
+1 ~x9_F +1 ~x1_E >= 1;
+1 ~x9_G +1 ~x1_H >= 1;
+1 ~x9_G +1 ~x1_F >= 1;
+1 ~x9_H +1 ~x1_I >= 1;
+1 ~x9_H +1 ~x1_G >= 1;
+1 ~x9_I +1 ~x1_J >= 1;
+1 ~x9_I +1 ~x1_H >= 1;
+1 ~x9_J +1 ~x1_I >= 1;
+1 ~x9_A +1 ~x2_B >= 1;
+1 ~x9_B +1 ~x2_C >= 1;
+1 ~x9_B +1 ~x2_A >= 1;
+1 ~x9_C +1 ~x2_D >= 1;
+1 ~x9_C +1 ~x2_B >= 1;
+1 ~x9_D +1 ~x2_E >= 1;
+1 ~x9_D +1 ~x2_C >= 1;
+1 ~x9_E +1 ~x2_F >= 1;
+1 ~x9_E +1 ~x2_D >= 1;
+1 ~x9_F +1 ~x2_G >= 1;
+1 ~x9_F +1 ~x2_E >= 1;
+1 ~x9_G +1 ~x2_H >= 1;
+1 ~x9_G +1 ~x2_F >= 1;
+1 ~x9_H +1 ~x2_I >= 1;
+1 ~x9_H +1 ~x2_G >= 1;
+1 ~x9_I +1 ~x2_J >= 1;
+1 ~x9_I +1 ~x2_H >= 1;
+1 ~x9_J +1 ~x2_I >= 1;
+1 ~x9_A +1 ~x4_B >= 1;
+1 ~x9_B +1 ~x4_C >= 1;
+1 ~x9_B +1 ~x4_A >= 1;
+1 ~x9_C +1 ~x4_D >= 1;
+1 ~x9_C +1 ~x4_B >= 1;
+1 ~x9_D +1 ~x4_E >= 1;
+1 ~x9_D +1 ~x4_C >= 1;
+1 ~x9_E +1 ~x4_F >= 1;
+1 ~x9_E +1 ~x4_D >= 1;
+1 ~x9_F +1 ~x4_G >= 1;
+1 ~x9_F +1 ~x4_E >= 1;
+1 ~x9_G +1 ~x4_H >= 1;
+1 ~x9_G +1 ~x4_F >= 1;
+1 ~x9_H +1 ~x4_I >= 1;
+1 ~x9_H +1 ~x4_G >= 1;
+1 ~x9_I +1 ~x4_J >= 1;
+1 ~x9_I +1 ~x4_H >= 1;
+1 ~x9_J +1 ~x4_I >= 1;
+1 ~x0_A +1 ~x1_A +1 ~x2_A +1 ~x3_A +1 ~x4_A +1 ~x5_A +1 ~x6_A +1 ~x7_A +1 ~x8_A +1 ~x9_A >= 9;
+1 x0_A +1 x1_A +1 x2_A +1 x3_A +1 x4_A +1 x5_A +1 x6_A +1 x7_A +1 x8_A +1 x9_A >= 1 ;
+1 ~x0_B +1 ~x1_B +1 ~x2_B +1 ~x3_B +1 ~x4_B +1 ~x5_B +1 ~x6_B +1 ~x7_B +1 ~x8_B +1 ~x9_B >= 9;
+1 x0_B +1 x1_B +1 x2_B +1 x3_B +1 x4_B +1 x5_B +1 x6_B +1 x7_B +1 x8_B +1 x9_B >= 1 ;
+1 ~x0_C +1 ~x1_C +1 ~x2_C +1 ~x3_C +1 ~x4_C +1 ~x5_C +1 ~x6_C +1 ~x7_C +1 ~x8_C +1 ~x9_C >= 9;
+1 x0_C +1 x1_C +1 x2_C +1 x3_C +1 x4_C +1 x5_C +1 x6_C +1 x7_C +1 x8_C +1 x9_C >= 1 ;
+1 ~x0_D +1 ~x1_D +1 ~x2_D +1 ~x3_D +1 ~x4_D +1 ~x5_D +1 ~x6_D +1 ~x7_D +1 ~x8_D +1 ~x9_D >= 9;
+1 x0_D +1 x1_D +1 x2_D +1 x3_D +1 x4_D +1 x5_D +1 x6_D +1 x7_D +1 x8_D +1 x9_D >= 1 ;
+1 ~x0_E +1 ~x1_E +1 ~x2_E +1 ~x3_E +1 ~x4_E +1 ~x5_E +1 ~x6_E +1 ~x7_E +1 ~x8_E +1 ~x9_E >= 9;
+1 x0_E +1 x1_E +1 x2_E +1 x3_E +1 x4_E +1 x5_E +1 x6_E +1 x7_E +1 x8_E +1 x9_E >= 1 ;
+1 ~x0_F +1 ~x1_F +1 ~x2_F +1 ~x3_F +1 ~x4_F +1 ~x5_F +1 ~x6_F +1 ~x7_F +1 ~x8_F +1 ~x9_F >= 9;
+1 x0_F +1 x1_F +1 x2_F +1 x3_F +1 x4_F +1 x5_F +1 x6_F +1 x7_F +1 x8_F +1 x9_F >= 1 ;
+1 ~x0_G +1 ~x1_G +1 ~x2_G +1 ~x3_G +1 ~x4_G +1 ~x5_G +1 ~x6_G +1 ~x7_G +1 ~x8_G +1 ~x9_G >= 9;
+1 x0_G +1 x1_G +1 x2_G +1 x3_G +1 x4_G +1 x5_G +1 x6_G +1 x7_G +1 x8_G +1 x9_G >= 1 ;
+1 ~x0_H +1 ~x1_H +1 ~x2_H +1 ~x3_H +1 ~x4_H +1 ~x5_H +1 ~x6_H +1 ~x7_H +1 ~x8_H +1 ~x9_H >= 9;
+1 x0_H +1 x1_H +1 x2_H +1 x3_H +1 x4_H +1 x5_H +1 x6_H +1 x7_H +1 x8_H +1 x9_H >= 1 ;
+1 ~x0_I +1 ~x1_I +1 ~x2_I +1 ~x3_I +1 ~x4_I +1 ~x5_I +1 ~x6_I +1 ~x7_I +1 ~x8_I +1 ~x9_I >= 9;
+1 x0_I +1 x1_I +1 x2_I +1 x3_I +1 x4_I +1 x5_I +1 x6_I +1 x7_I +1 x8_I +1 x9_I >= 1 ;
+1 ~x0_J +1 ~x1_J +1 ~x2_J +1 ~x3_J +1 ~x4_J +1 ~x5_J +1 ~x6_J +1 ~x7_J +1 ~x8_J +1 ~x9_J >= 9;
+1 x0_J +1 x1_J +1 x2_J +1 x3_J +1 x4_J +1 x5_J +1 x6_J +1 x7_J +1 x8_J +1 x9_J >= 1 ;
+1 ~x0_A +1 ~x0_B +1 ~x0_C +1 ~x0_D +1 ~x0_E +1 ~x0_F +1 ~x0_G +1 ~x0_H +1 ~x0_I +1 ~x0_J >= 9;
+1 x0_A +1 x0_B +1 x0_C +1 x0_D +1 x0_E +1 x0_F +1 x0_G +1 x0_H +1 x0_I +1 x0_J >= 1 ;
+1 ~x1_A +1 ~x1_B +1 ~x1_C +1 ~x1_D +1 ~x1_E +1 ~x1_F +1 ~x1_G +1 ~x1_H +1 ~x1_I +1 ~x1_J >= 9;
+1 x1_A +1 x1_B +1 x1_C +1 x1_D +1 x1_E +1 x1_F +1 x1_G +1 x1_H +1 x1_I +1 x1_J >= 1 ;
+1 ~x2_A +1 ~x2_B +1 ~x2_C +1 ~x2_D +1 ~x2_E +1 ~x2_F +1 ~x2_G +1 ~x2_H +1 ~x2_I +1 ~x2_J >= 9;
+1 x2_A +1 x2_B +1 x2_C +1 x2_D +1 x2_E +1 x2_F +1 x2_G +1 x2_H +1 x2_I +1 x2_J >= 1 ;
+1 ~x3_A +1 ~x3_B +1 ~x3_C +1 ~x3_D +1 ~x3_E +1 ~x3_F +1 ~x3_G +1 ~x3_H +1 ~x3_I +1 ~x3_J >= 9;
+1 x3_A +1 x3_B +1 x3_C +1 x3_D +1 x3_E +1 x3_F +1 x3_G +1 x3_H +1 x3_I +1 x3_J >= 1 ;
+1 ~x4_A +1 ~x4_B +1 ~x4_C +1 ~x4_D +1 ~x4_E +1 ~x4_F +1 ~x4_G +1 ~x4_H +1 ~x4_I +1 ~x4_J >= 9;
+1 x4_A +1 x4_B +1 x4_C +1 x4_D +1 x4_E +1 x4_F +1 x4_G +1 x4_H +1 x4_I +1 x4_J >= 1 ;
+1 ~x5_A +1 ~x5_B +1 ~x5_C +1 ~x5_D +1 ~x5_E +1 ~x5_F +1 ~x5_G +1 ~x5_H +1 ~x5_I +1 ~x5_J >= 9;
+1 x5_A +1 x5_B +1 x5_C +1 x5_D +1 x5_E +1 x5_F +1 x5_G +1 x5_H +1 x5_I +1 x5_J >= 1 ;
+1 ~x6_A +1 ~x6_B +1 ~x6_C +1 ~x6_D +1 ~x6_E +1 ~x6_F +1 ~x6_G +1 ~x6_H +1 ~x6_I +1 ~x6_J >= 9;
+1 x6_A +1 x6_B +1 x6_C +1 x6_D +1 x6_E +1 x6_F +1 x6_G +1 x6_H +1 x6_I +1 x6_J >= 1 ;
+1 ~x7_A +1 ~x7_B +1 ~x7_C +1 ~x7_D +1 ~x7_E +1 ~x7_F +1 ~x7_G +1 ~x7_H +1 ~x7_I +1 ~x7_J >= 9;
+1 x7_A +1 x7_B +1 x7_C +1 x7_D +1 x7_E +1 x7_F +1 x7_G +1 x7_H +1 x7_I +1 x7_J >= 1 ;
+1 ~x8_A +1 ~x8_B +1 ~x8_C +1 ~x8_D +1 ~x8_E +1 ~x8_F +1 ~x8_G +1 ~x8_H +1 ~x8_I +1 ~x8_J >= 9;
+1 x8_A +1 x8_B +1 x8_C +1 x8_D +1 x8_E +1 x8_F +1 x8_G +1 x8_H +1 x8_I +1 x8_J >= 1 ;
+1 ~x9_A +1 ~x9_B +1 ~x9_C +1 ~x9_D +1 ~x9_E +1 ~x9_F +1 ~x9_G +1 ~x9_H +1 ~x9_I +1 ~x9_J >= 9;
+1 x9_A +1 x9_B +1 x9_C +1 x9_D +1 x9_E +1 x9_F +1 x9_G +1 x9_H +1 x9_I +1 x9_J >= 1 ;
